* ENCODING=ISO-8859-1
NAME          CPLEX
ROWS
 N  obj1    
 G  c1      
 G  c2      
 G  c3      
 G  c4      
 G  c5      
 G  c6      
 G  c7      
 G  c8      
 G  c9      
 G  c10     
 G  c11     
 G  c12     
 G  c13     
 G  c14     
 G  c15     
 G  c16     
 G  c17     
 G  c18     
 G  c19     
 G  c20     
 G  c21     
 G  c22     
 G  c23     
 G  c24     
 G  c25     
COLUMNS
    MARK0000  'MARKER'                 'INTORG'
    x1        obj1                            1
    x1        c9                            473
    x1        c10                           690
    x1        c16                           361
    x1        c21                           835
    x1        c22                           270
    x2        obj1                            1
    x2        c13                           222
    x2        c25                           868
    x3        obj1                            1
    x3        c7                            879
    x3        c8                            799
    x3        c12                           756
    x3        c17                           505
    x3        c22                           645
    x4        obj1                            1
    x4        c4                            626
    x4        c19                           154
    x5        obj1                            1
    x5        c14                           915
    x5        c20                           145
    x6        obj1                            1
    x6        c3                            392
    x6        c17                           688
    x6        c19                           199
    x6        c25                           474
    x7        obj1                            1
    x7        c14                           595
    x7        c19                           761
    x8        obj1                            1
    x8        c13                           539
    x8        c22                           342
    x9        obj1                            1
    x9        c15                           889
    x9        c17                           964
    x9        c21                           993
    x10       obj1                            1
    x10       c1                            758
    x10       c7                            752
    x11       obj1                            1
    x11       c8                            703
    x11       c11                           578
    x12       obj1                            1
    x12       c10                           911
    x12       c22                           513
    x12       c25                           446
    x13       obj1                            1
    x13       c3                            873
    x14       obj1                            1
    x14       c11                           920
    x15       obj1                            1
    x16       obj1                            1
    x16       c1                            832
    x16       c9                            367
    x16       c15                           221
    x17       obj1                            1
    x17       c7                            444
    x17       c13                           511
    x18       obj1                            1
    x18       c9                            591
    x18       c25                           480
    x19       obj1                            1
    x20       obj1                            1
    x20       c12                           122
    x21       obj1                            1
    x21       c9                            234
    x21       c24                           187
    x22       obj1                            1
    x22       c1                            193
    x22       c2                            435
    x22       c16                           168
    x23       obj1                            1
    x23       c6                            608
    x23       c17                           105
    x24       obj1                            1
    x24       c7                            445
    x25       obj1                            1
    x25       c2                            317
    x25       c5                            151
    x25       c8                            815
    x26       obj1                            1
    x26       c18                           134
    x27       obj1                            1
    x27       c18                           128
    x28       obj1                            1
    x28       c1                            604
    x28       c8                            333
    x28       c12                           536
    x28       c21                           839
    x28       c23                           746
    x29       obj1                            1
    x29       c3                            906
    x29       c4                            213
    x29       c17                           828
    x30       obj1                            1
    x30       c5                            780
    x30       c15                           610
    x30       c18                           590
    x31       obj1                            1
    x31       c3                            566
    x31       c7                            216
    x31       c14                           882
    x31       c15                           603
    x31       c24                           379
    x32       obj1                            1
    x32       c5                            498
    x32       c8                            144
    x32       c14                           264
    x33       obj1                            1
    x33       c20                           133
    x34       obj1                            1
    x34       c1                            994
    x34       c4                            552
    x34       c15                           166
    x34       c16                           716
    x35       obj1                            1
    x35       c6                            518
    x35       c11                           450
    x35       c16                           805
    x35       c24                           474
    x35       c25                           224
    x36       obj1                            1
    x36       c2                            741
    x36       c17                           170
    x37       obj1                            1
    x37       c6                            530
    x37       c14                           550
    x38       obj1                            1
    x38       c11                           938
    x38       c19                           887
    x38       c21                           883
    x38       c23                           773
    x39       obj1                            1
    x39       c3                            295
    x39       c5                            883
    x39       c19                           871
    x39       c25                           621
    x40       obj1                            1
    x40       c5                            393
    x40       c12                           550
    x41       obj1                            1
    x42       obj1                            1
    x42       c23                           788
    x42       c24                           414
    x43       obj1                            1
    x43       c3                            327
    x43       c5                            766
    x43       c20                           785
    x44       obj1                            1
    x44       c5                            323
    x44       c17                           623
    x45       obj1                            1
    x46       obj1                            1
    x46       c3                            471
    x46       c9                            297
    x46       c19                           460
    x47       obj1                            1
    x47       c14                           375
    x47       c25                           674
    x48       obj1                            1
    x48       c4                            410
    x48       c13                           731
    x49       obj1                            1
    x49       c8                            540
    x49       c10                           951
    x50       obj1                            1
    x50       c1                            917
    x50       c6                            514
    x50       c8                            164
    MARK0001  'MARKER'                 'INTEND'
RHS
    rhs       c1                           2149
    rhs       c2                            747
    rhs       c3                           1915
    rhs       c4                            901
    rhs       c5                           1897
    rhs       c6                           1085
    rhs       c7                           1368
    rhs       c8                           1749
    rhs       c9                            981
    rhs       c10                          1276
    rhs       c11                          1443
    rhs       c12                           982
    rhs       c13                          1002
    rhs       c14                          1791
    rhs       c15                          1245
    rhs       c16                          1025
    rhs       c17                          1942
    rhs       c18                           426
    rhs       c19                          1666
    rhs       c20                           532
    rhs       c21                          1775
    rhs       c22                           885
    rhs       c23                          1154
    rhs       c24                           727
    rhs       c25                          1894
BOUNDS
 LI bnd       x1        0
 LI bnd       x2        0
 LI bnd       x3        0
 LI bnd       x4        0
 LI bnd       x5        0
 LI bnd       x6        0
 LI bnd       x7        0
 LI bnd       x8        0
 LI bnd       x9        0
 LI bnd       x10       0
 LI bnd       x11       0
 LI bnd       x12       0
 LI bnd       x13       0
 LI bnd       x14       0
 LI bnd       x15       0
 LI bnd       x16       0
 LI bnd       x17       0
 LI bnd       x18       0
 LI bnd       x19       0
 LI bnd       x20       0
 LI bnd       x21       0
 LI bnd       x22       0
 LI bnd       x23       0
 LI bnd       x24       0
 LI bnd       x25       0
 LI bnd       x26       0
 LI bnd       x27       0
 LI bnd       x28       0
 LI bnd       x29       0
 LI bnd       x30       0
 LI bnd       x31       0
 LI bnd       x32       0
 LI bnd       x33       0
 LI bnd       x34       0
 LI bnd       x35       0
 LI bnd       x36       0
 LI bnd       x37       0
 LI bnd       x38       0
 LI bnd       x39       0
 LI bnd       x40       0
 LI bnd       x41       0
 LI bnd       x42       0
 LI bnd       x43       0
 LI bnd       x44       0
 LI bnd       x45       0
 LI bnd       x46       0
 LI bnd       x47       0
 LI bnd       x48       0
 LI bnd       x49       0
 LI bnd       x50       0
ENDATA
